pr8_2
0 33 107 127 78 89 32 85 62 34 12 101 106 30 68 39 114 109 15 40 47 133 118 66 27 21 43 13 95 55 28 138 111 145 79 102 132 120 49 128 59 77 80 18 119 71 52 58 134 0 45 44 98 146 83 25 135 116 103 86 60 53 7 35 105 63 129 57 41 46 97 29 51 140 61 96 38 50 73 113 144 8 10 82 130 20 70 64 48 149 104 76 22 16 2 137 24 139 147 108 56 123 23 9 115 31 125 17 14 74 148 54 124 126 42 93 131 92 11 122 84 75 72 141 5 37 67 81 6 90 69 88 112 26 143 117 19 110 100 91 94 99 65 36 136 142 121 87 0